% demand
num_movements = 14;
loading_factor = [1200, 1150, 1350, 1250, 1700, 1100, 950, 1550, 1900, 1950, 800, 1700, 900, 1650];
pickup_time = [0, 0, 0, 0, 0, 1, 1, 3, 3, 5, 5, 5, 5, 5];
delivery_time = [3, 3, 5, 3, 1, 5, 4, 4, 4, 7, 7, 6, 7, 7];

% transporter definition
total_capacity = 7000;
num_decks = 3;
capacity = [3000, 1000, 3000];

% ways out of decks
num_ways_out = 1;
paths_out = array3d(decks, ways_out, decks, [
% ways out of deck d1
2, 3, 0, 

% ways out of deck d2
3, 0, 0, 

% ways out of deck d3
0, 0, 0,	

]);

